(set-logic HORN)

(declare-datatypes ((node 0)) (((node  (data Int) (next Int) (prev Int)))))
(declare-datatypes ((HeapObject 0)) (((O_Int  (getInt Int)) (O_UInt  (getUInt Int)) (O_Addr  (getAddr Int)) (O_node  (getnode node)) (defObj ))))
(declare-datatypes ((Heap 0)) (((HeapCtor  (HeapSize Int) (HeapContents (Array Int HeapObject))))))

(declare-fun |inv_main47| ( Heap Int Int Int Int Int Int Int ) Bool)
(declare-fun |inv_main4| ( Heap Int Int ) Bool)
(declare-fun |inv_main56| ( Heap Int Int Int Int Int Int Int ) Bool)
(declare-fun |inv_main73| ( Heap Int Int Int Int Int Int ) Bool)
(declare-fun |inv_main25| ( Heap Int Int Int Int Int Int ) Bool)
(declare-fun |inv_main76| ( Heap Int Int Int Int Int ) Bool)
(declare-fun |inv_main54| ( Heap Int Int Int Int Int Int Int ) Bool)
(declare-fun |inv_main52| ( Heap Int Int Int Int Int Int Int ) Bool)
(declare-fun |inv_main40| ( Heap Int Int Int Int Int Int Int ) Bool)
(declare-fun |inv_main53| ( Heap Int Int Int Int Int Int Int ) Bool)
(declare-fun |CHC_COMP_FALSE| ( ) Bool)
(declare-fun |inv_main58| ( Heap Int Int Int Int Int ) Bool)
(declare-fun |inv_main60| ( Heap Int Int Int Int Int ) Bool)
(declare-fun |inv_main46| ( Heap Int Int Int Int Int Int Int ) Bool)
(declare-fun |inv_main28| ( Heap Int Int Int Int Int Int ) Bool)
(declare-fun |inv_main21| ( Heap Int Int Int Int Int Int Int ) Bool)
(declare-fun |inv_main8| ( Heap Int Int Int Int Int ) Bool)
(declare-fun |inv_main15| ( Heap Int Int Int Int Int Int Int ) Bool)
(declare-fun |inv_main61| ( Heap Int Int Int Int Int ) Bool)
(declare-fun |inv_main22| ( Heap Int Int Int Int Int Int Int ) Bool)
(declare-fun |inv_main24| ( Heap Int Int Int Int Int Int ) Bool)

(assert
  (forall ( (A Heap) (v_1 Int) (v_2 Int) ) 
    (=>
      (and
        (and (= A (HeapCtor 0 ((as const (Array Int HeapObject)) defObj)))
     (= 2 v_1)
     (= 1 v_2))
      )
      (inv_main4 A v_1 v_2)
    )
  )
)
(assert
  (forall ( (A Int) (B Int) (C Int) (D Int) (E Int) (F Heap) ) 
    (=>
      (and
        (inv_main60 F E D C B A)
        (let ((a!1 (ite (and (not (<= B 0)) (>= (HeapSize F) B))
                (select (HeapContents F) B)
                defObj)))
(let ((a!2 (not (= D (data (getnode a!1))))))
  (and ((_ is O_node) a!1) a!2)))
      )
      (inv_main76 F E D C B A)
    )
  )
)
(assert
  (forall ( (A Int) (B Int) (C Int) (D Int) (E Int) (F Heap) ) 
    (=>
      (and
        (inv_main58 F E D C B A)
        (and (not (= A (+ 1 E))) (= B 0))
      )
      (inv_main76 F E D C B A)
    )
  )
)
(assert
  (forall ( (A Int) (B Int) (C Int) (D Int) (E Int) (F Heap) ) 
    (=>
      (and
        (inv_main58 F E D C B A)
        (not (= B 0))
      )
      (inv_main60 F E D C B A)
    )
  )
)
(assert
  (forall ( (A Heap) (B Int) (C Int) (D Int) (E Int) (F Int) (G Int) (H Int) (I Heap) ) 
    (=>
      (and
        (inv_main40 I H G F E D C B)
        (let ((a!1 (ite (and (not (<= B 0)) (>= (HeapSize I) B))
                (select (HeapContents I) B)
                defObj)))
(let ((a!2 (O_node (node (data (getnode a!1)) 0 (prev (getnode a!1))))))
(let ((a!3 (ite (and (not (<= B 0)) (>= (HeapSize I) B))
                (HeapCtor (HeapSize I) (store (HeapContents I) B a!2))
                I)))
  (and ((_ is O_node) a!1) (= A a!3)))))
      )
      (inv_main46 A H G F E D C B)
    )
  )
)
(assert
  (forall ( (A Int) (B Int) (C Int) (D Int) (E Int) (F Int) (G Int) (H Int) (I Heap) (J Int) (K Int) (L Int) (M Int) (N Int) (O Int) (P Int) (Q Heap) ) 
    (=>
      (and
        (inv_main54 Q P O N M L K J)
        (let ((a!1 (ite (and (not (<= J 0)) (>= (HeapSize Q) J))
                (select (HeapContents Q) J)
                defObj)))
  (and (= G O)
       (= F N)
       (= E M)
       (= D L)
       (= C K)
       (= B J)
       (= A (next (getnode a!1)))
       (= I Q)
       ((_ is O_node) a!1)
       (= H P)))
      )
      (inv_main52 I H G F E D C A)
    )
  )
)
(assert
  (forall ( (A Int) (B Int) (C Int) (D Int) (E Int) (F Int) (G Heap) (H Int) (I Int) (J Int) (K Int) (L Int) (M Int) (N Int) (O Int) (P Heap) (v_16 Int) ) 
    (=>
      (and
        (inv_main47 P O N M L K J I)
        (let ((a!1 (ite (and (not (<= I 0)) (>= (HeapSize P) I))
                (select (HeapContents P) I)
                defObj)))
(let ((a!2 (O_node (node J (next (getnode a!1)) (prev (getnode a!1))))))
(let ((a!3 (ite (and (not (<= I 0)) (>= (HeapSize P) I))
                (HeapCtor (HeapSize P) (store (HeapContents P) I a!2))
                P)))
  (and (= H M)
       (= F O)
       (= E N)
       (= D L)
       (= C K)
       (= B J)
       (= A I)
       (= G a!3)
       ((_ is O_node) a!1)
       (not (= 0 H))
       (= v_16 H)))))
      )
      (inv_main52 G F E H D C A v_16)
    )
  )
)
(assert
  (forall ( (A Int) (B Int) (C Int) (D Int) (E Int) (F Int) (G node) (H Heap) (I Int) (J Int) (K Int) (L Int) (M Int) (N Int) (O Heap) ) 
    (=>
      (and
        (inv_main8 O N M L K J)
        (let ((a!1 (HeapCtor (+ 1 (HeapSize O))
                     (store (HeapContents O) (+ 1 (HeapSize O)) (O_node G)))))
  (and (= F N)
       (= E M)
       (= D L)
       (= C K)
       (= B J)
       (= A K)
       (= I (+ 1 (HeapSize O)))
       (= H a!1)
       (<= 1 L)
       (not (= 0 I))))
      )
      (inv_main15 H F E D C B A I)
    )
  )
)
(assert
  (forall ( (A Int) (B Int) (C Int) (D Int) (E Int) (F Int) (G Int) (H Heap) ) 
    (=>
      (and
        (inv_main52 H G F E D C B A)
        (let ((a!1 (ite (and (not (<= A 0)) (>= (HeapSize H) A))
                (select (HeapContents H) A)
                defObj)))
  (and ((_ is O_node) a!1) (= (next (getnode a!1)) 0)))
      )
      (inv_main53 H G F E D C B A)
    )
  )
)
(assert
  (forall ( (A Heap) (B Int) (C Int) (D Int) (E Int) (F Int) (G Int) (H Int) (I Heap) ) 
    (=>
      (and
        (inv_main53 I H G F E D C B)
        (let ((a!1 (ite (and (not (<= B 0)) (>= (HeapSize I) B))
                (select (HeapContents I) B)
                defObj)))
(let ((a!2 (O_node (node (data (getnode a!1)) C (prev (getnode a!1))))))
(let ((a!3 (ite (and (not (<= B 0)) (>= (HeapSize I) B))
                (HeapCtor (HeapSize I) (store (HeapContents I) B a!2))
                I)))
  (and ((_ is O_node) a!1) (= A a!3)))))
      )
      (inv_main56 A H G F E D C B)
    )
  )
)
(assert
  (forall ( (A Int) (B Int) (C Int) (D Int) (E Int) (F Int) (G Int) (H Heap) (I Int) (J Int) (K Int) (L Int) (M Int) (N Int) (O Int) (P Heap) ) 
    (=>
      (and
        (inv_main22 P O N M L K J I)
        (let ((a!1 (ite (and (not (<= I 0)) (>= (HeapSize P) I))
                (select (HeapContents P) I)
                defObj)))
(let ((a!2 (O_node (node J (next (getnode a!1)) (prev (getnode a!1))))))
(let ((a!3 (ite (and (not (<= I 0)) (>= (HeapSize P) I))
                (HeapCtor (HeapSize P) (store (HeapContents P) I a!2))
                P)))
  (and (= F N)
       (= E M)
       (= D L)
       (= C K)
       (= B J)
       (= A I)
       (= H a!3)
       ((_ is O_node) a!1)
       (= G O)))))
      )
      (inv_main24 H G F E D C A)
    )
  )
)
(assert
  (forall ( (A Heap) (B Int) (C Int) (D Int) (E Int) (F Int) (G Int) (H Int) (I Heap) ) 
    (=>
      (and
        (inv_main15 I H G F E D C B)
        (let ((a!1 (ite (and (not (<= B 0)) (>= (HeapSize I) B))
                (select (HeapContents I) B)
                defObj)))
(let ((a!2 (O_node (node (data (getnode a!1)) 0 (prev (getnode a!1))))))
(let ((a!3 (ite (and (not (<= B 0)) (>= (HeapSize I) B))
                (HeapCtor (HeapSize I) (store (HeapContents I) B a!2))
                I)))
  (and ((_ is O_node) a!1) (= A a!3)))))
      )
      (inv_main21 A H G F E D C B)
    )
  )
)
(assert
  (forall ( (A Heap) (B Int) (C Int) (D Int) (E Int) (F Int) (G Int) (H Int) (I Heap) ) 
    (=>
      (and
        (inv_main21 I H G F E D C B)
        (let ((a!1 (ite (and (not (<= B 0)) (>= (HeapSize I) B))
                (select (HeapContents I) B)
                defObj)))
(let ((a!2 (O_node (node (data (getnode a!1)) (next (getnode a!1)) 0))))
(let ((a!3 (ite (and (not (<= B 0)) (>= (HeapSize I) B))
                (HeapCtor (HeapSize I) (store (HeapContents I) B a!2))
                I)))
  (and ((_ is O_node) a!1) (= A a!3)))))
      )
      (inv_main22 A H G F E D C B)
    )
  )
)
(assert
  (forall ( (A Int) (B Int) (C Int) (D Int) (E Int) (F Heap) ) 
    (=>
      (and
        (inv_main60 F E D C B A)
        (let ((a!1 (ite (and (not (<= B 0)) (>= (HeapSize F) B))
                (select (HeapContents F) B)
                defObj)))
  (and ((_ is O_node) a!1) (= D (data (getnode a!1)))))
      )
      (inv_main61 F E D C B A)
    )
  )
)
(assert
  (forall ( (A Int) (B Int) (C Int) (D Int) (E Int) (F Heap) (G Int) (H Int) (I Int) (J Int) (K Int) (L Int) (M Int) (N Heap) ) 
    (=>
      (and
        (inv_main25 N M L K J I H)
        (let ((a!1 (ite (and (not (<= H 0)) (>= (HeapSize N) H))
                (select (HeapContents N) H)
                defObj)))
(let ((a!2 (O_node (node (data (getnode a!1)) I (prev (getnode a!1))))))
(let ((a!3 (ite (and (not (<= H 0)) (>= (HeapSize N) H))
                (HeapCtor (HeapSize N) (store (HeapContents N) H a!2))
                N)))
  (and (= D L)
       (= C K)
       (= B J)
       (= A H)
       (not (= G 0))
       (= G I)
       (= F a!3)
       ((_ is O_node) a!1)
       (= E M)))))
      )
      (inv_main28 F E D C B G A)
    )
  )
)
(assert
  (forall ( (A Int) (B Int) (C Int) (D Int) (E Int) (F Int) (G Int) (H Heap) ) 
    (=>
      (and
        (inv_main52 H G F E D C B A)
        (let ((a!1 (ite (and (not (<= A 0)) (>= (HeapSize H) A))
                (select (HeapContents H) A)
                defObj)))
(let ((a!2 (not (= (next (getnode a!1)) 0))))
  (and ((_ is O_node) a!1) a!2)))
      )
      (inv_main54 H G F E D C B A)
    )
  )
)
(assert
  (forall ( (A Int) (B Int) (C Int) (D Int) (E Int) (F Int) (G node) (H Heap) (I Int) (J Int) (K Int) (L Int) (M Int) (N Int) (O Heap) ) 
    (=>
      (and
        (inv_main8 O N M L K J)
        (let ((a!1 (HeapCtor (+ 1 (HeapSize O))
                     (store (HeapContents O) (+ 1 (HeapSize O)) (O_node G)))))
  (and (= F N)
       (= E M)
       (= D J)
       (= C 3)
       (= B M)
       (= A M)
       (= I (+ 1 (HeapSize O)))
       (= H a!1)
       (not (<= 1 L))
       (not (= 0 I))))
      )
      (inv_main40 H F E D C B A I)
    )
  )
)
(assert
  (forall ( (A Int) (B Int) (C Int) (D Int) (E Int) (F Int) (G Int) (H Heap) (I Int) (J Int) (K Int) (L Int) (M Int) (N Heap) ) 
    (=>
      (and
        (inv_main61 N M L K J I)
        (let ((a!1 (ite (and (not (<= J 0)) (>= (HeapSize N) J))
                (select (HeapContents N) J)
                defObj)))
  (and (= E K)
       (= D J)
       (= C I)
       (= B (next (getnode a!1)))
       (= A (+ 1 C))
       (= G M)
       (= H N)
       ((_ is O_node) a!1)
       (= F L)))
      )
      (inv_main58 H G F E B A)
    )
  )
)
(assert
  (forall ( (A Int) (B Int) (C Int) (D Int) (E Int) (F Heap) (G Int) (H Int) (I Int) (J Int) (K Int) (L Int) (M Int) (N Heap) (v_14 Int) (v_15 Int) ) 
    (=>
      (and
        (inv_main56 N M L K J I H G)
        (let ((a!1 (ite (and (not (<= H 0)) (>= (HeapSize N) H))
                (select (HeapContents N) H)
                defObj)))
(let ((a!2 (O_node (node (data (getnode a!1)) (next (getnode a!1)) G))))
(let ((a!3 (ite (and (not (<= H 0)) (>= (HeapSize N) H))
                (HeapCtor (HeapSize N) (store (HeapContents N) H a!2))
                N)))
  (and (= D L)
       (= C K)
       (= B J)
       (= A I)
       (= F a!3)
       ((_ is O_node) a!1)
       (= E M)
       (= v_14 C)
       (= 0 v_15)))))
      )
      (inv_main58 F E D C v_14 v_15)
    )
  )
)
(assert
  (forall ( (A Int) (B Int) (C Int) (D Int) (E Int) (F Int) (G Heap) (H Int) (I Int) (J Int) (K Int) (L Int) (M Int) (N Int) (O Int) (P Heap) (v_16 Int) (v_17 Int) ) 
    (=>
      (and
        (inv_main47 P O N M L K J I)
        (let ((a!1 (ite (and (not (<= I 0)) (>= (HeapSize P) I))
                (select (HeapContents P) I)
                defObj)))
(let ((a!2 (O_node (node J (next (getnode a!1)) (prev (getnode a!1))))))
(let ((a!3 (ite (and (not (<= I 0)) (>= (HeapSize P) I))
                (HeapCtor (HeapSize P) (store (HeapContents P) I a!2))
                P)))
  (and (= H M)
       (= F O)
       (= E N)
       (= D L)
       (= C K)
       (= B J)
       (= A I)
       (= G a!3)
       ((_ is O_node) a!1)
       (= 0 H)
       (= v_16 A)
       (= 0 v_17)))))
      )
      (inv_main58 G F E A v_16 v_17)
    )
  )
)
(assert
  (forall ( (A Heap) (B Int) (C Int) (D Int) (E Int) (F Int) (G Int) (H Heap) ) 
    (=>
      (and
        (inv_main24 H G F E D C B)
        (let ((a!1 (ite (and (not (<= B 0)) (>= (HeapSize H) B))
                (select (HeapContents H) B)
                defObj)))
(let ((a!2 (O_node (node D (next (getnode a!1)) (prev (getnode a!1))))))
(let ((a!3 (ite (and (not (<= B 0)) (>= (HeapSize H) B))
                (HeapCtor (HeapSize H) (store (HeapContents H) B a!2))
                H)))
  (and ((_ is O_node) a!1) (= A a!3)))))
      )
      (inv_main25 A G F E D C B)
    )
  )
)
(assert
  (forall ( (A Heap) (B Int) (C Int) (D Int) (E Int) (F Int) (G Int) (H Int) (I Heap) ) 
    (=>
      (and
        (inv_main46 I H G F E D C B)
        (let ((a!1 (ite (and (not (<= B 0)) (>= (HeapSize I) B))
                (select (HeapContents I) B)
                defObj)))
(let ((a!2 (O_node (node (data (getnode a!1)) (next (getnode a!1)) 0))))
(let ((a!3 (ite (and (not (<= B 0)) (>= (HeapSize I) B))
                (HeapCtor (HeapSize I) (store (HeapContents I) B a!2))
                I)))
  (and ((_ is O_node) a!1) (= A a!3)))))
      )
      (inv_main47 A H G F E D C B)
    )
  )
)
(assert
  (forall ( (A Int) (B Int) (C Int) (D Int) (E Int) (F Int) (G Heap) (H Int) (I Int) (J Int) (K Int) (L Int) (M Int) (N Int) (O Heap) (P Int) (Q Int) (R Int) (S Int) (T Int) (U Int) (V Int) (W Heap) ) 
    (=>
      (and
        (inv_main73 W V U T S R Q)
        (let ((a!1 (ite (and (not (<= Q 0)) (>= (HeapSize W) Q))
                (select (HeapContents W) Q)
                defObj))
      (a!2 (ite (and (not (<= I 0)) (>= (HeapSize O) I))
                (HeapCtor (HeapSize O) (store (HeapContents O) I defObj))
                O)))
  (and (= E M)
       (= D L)
       (= C K)
       (= B J)
       (= A I)
       (= N V)
       (= M U)
       (= L T)
       (= K S)
       (= J R)
       (= I Q)
       (= H (next (getnode a!1)))
       (not (= P 0))
       (= P H)
       (= G a!2)
       (= O W)
       ((_ is O_node) a!1)
       (= F N)))
      )
      (inv_main73 G F E D C B P)
    )
  )
)
(assert
  (forall ( (A Int) (B Int) (C Int) (D Int) (E Int) (F Heap) (v_6 Int) ) 
    (=>
      (and
        (inv_main58 F E D C B A)
        (and (= B 0) (= A (+ 1 E)) (not (= C 0)) (= v_6 C))
      )
      (inv_main73 F E D C B A v_6)
    )
  )
)
(assert
  (forall ( (A Int) (B Int) (C Int) (D Int) (E Int) (F Int) (G Int) (H Heap) (I Int) (J Int) (K Int) (L Int) (M Int) (N Int) (O Heap) ) 
    (=>
      (and
        (inv_main28 O N M L K J I)
        (let ((a!1 (ite (and (not (<= J 0)) (>= (HeapSize O) J))
                (select (HeapContents O) J)
                defObj)))
(let ((a!2 (O_node (node (data (getnode a!1)) (next (getnode a!1)) I))))
(let ((a!3 (ite (and (not (<= J 0)) (>= (HeapSize O) J))
                (HeapCtor (HeapSize O) (store (HeapContents O) J a!2))
                O)))
  (and (= F M)
       (= E L)
       (= D K)
       (= C J)
       (= B I)
       (= A (+ (- 1) E))
       (= H a!3)
       ((_ is O_node) a!1)
       (= G N)))))
      )
      (inv_main8 H G F A D B)
    )
  )
)
(assert
  (forall ( (A Int) (B Int) (C Int) (D Int) (E Int) (F Int) (G Heap) (H Int) (I Int) (J Int) (K Int) (L Int) (M Int) (N Int) (O Heap) ) 
    (=>
      (and
        (inv_main25 O N M L K J I)
        (let ((a!1 (ite (and (not (<= I 0)) (>= (HeapSize O) I))
                (select (HeapContents O) I)
                defObj)))
(let ((a!2 (O_node (node (data (getnode a!1)) J (prev (getnode a!1))))))
(let ((a!3 (ite (and (not (<= I 0)) (>= (HeapSize O) I))
                (HeapCtor (HeapSize O) (store (HeapContents O) I a!2))
                O)))
  (and (= E M)
       (= D L)
       (= C K)
       (= B I)
       (= A (+ (- 1) D))
       (= H 0)
       (= H J)
       (= G a!3)
       ((_ is O_node) a!1)
       (= F N)))))
      )
      (inv_main8 G F E A C B)
    )
  )
)
(assert
  (forall ( (A Int) (B Int) (C Heap) (v_3 Int) (v_4 Int) (v_5 Int) ) 
    (=>
      (and
        (inv_main4 C B A)
        (and (= v_3 B) (= v_4 A) (= 0 v_5))
      )
      (inv_main8 C B A v_3 v_4 v_5)
    )
  )
)
(assert
  (forall ( (A Int) (B Int) (C Int) (D Int) (E Int) (F Int) (G Int) (H Heap) ) 
    (=>
      (and
        (inv_main15 H G F E D C B A)
        (let ((a!1 (ite (and (not (<= A 0)) (>= (HeapSize H) A))
                (select (HeapContents H) A)
                defObj)))
  (not ((_ is O_node) a!1)))
      )
      CHC_COMP_FALSE
    )
  )
)
(assert
  (forall ( (A Int) (B Int) (C Int) (D Int) (E Int) (F Int) (G Int) (H Heap) ) 
    (=>
      (and
        (inv_main21 H G F E D C B A)
        (let ((a!1 (ite (and (not (<= A 0)) (>= (HeapSize H) A))
                (select (HeapContents H) A)
                defObj)))
  (not ((_ is O_node) a!1)))
      )
      CHC_COMP_FALSE
    )
  )
)
(assert
  (forall ( (A Int) (B Int) (C Int) (D Int) (E Int) (F Int) (G Int) (H Heap) ) 
    (=>
      (and
        (inv_main22 H G F E D C B A)
        (let ((a!1 (ite (and (not (<= A 0)) (>= (HeapSize H) A))
                (select (HeapContents H) A)
                defObj)))
  (not ((_ is O_node) a!1)))
      )
      CHC_COMP_FALSE
    )
  )
)
(assert
  (forall ( (A Int) (B Int) (C Int) (D Int) (E Int) (F Int) (G Heap) ) 
    (=>
      (and
        (inv_main24 G F E D C B A)
        (let ((a!1 (ite (and (not (<= A 0)) (>= (HeapSize G) A))
                (select (HeapContents G) A)
                defObj)))
  (not ((_ is O_node) a!1)))
      )
      CHC_COMP_FALSE
    )
  )
)
(assert
  (forall ( (A Int) (B Int) (C Int) (D Int) (E Int) (F Int) (G Heap) ) 
    (=>
      (and
        (inv_main25 G F E D C B A)
        (let ((a!1 (ite (and (not (<= A 0)) (>= (HeapSize G) A))
                (select (HeapContents G) A)
                defObj)))
  (not ((_ is O_node) a!1)))
      )
      CHC_COMP_FALSE
    )
  )
)
(assert
  (forall ( (A Int) (B Int) (C Int) (D Int) (E Int) (F Int) (G Heap) ) 
    (=>
      (and
        (inv_main28 G F E D C B A)
        (let ((a!1 (ite (and (not (<= B 0)) (>= (HeapSize G) B))
                (select (HeapContents G) B)
                defObj)))
  (not ((_ is O_node) a!1)))
      )
      CHC_COMP_FALSE
    )
  )
)
(assert
  (forall ( (A Int) (B Int) (C Int) (D Int) (E Int) (F Int) (G Int) (H Heap) ) 
    (=>
      (and
        (inv_main40 H G F E D C B A)
        (let ((a!1 (ite (and (not (<= A 0)) (>= (HeapSize H) A))
                (select (HeapContents H) A)
                defObj)))
  (not ((_ is O_node) a!1)))
      )
      CHC_COMP_FALSE
    )
  )
)
(assert
  (forall ( (A Int) (B Int) (C Int) (D Int) (E Int) (F Int) (G Int) (H Heap) ) 
    (=>
      (and
        (inv_main46 H G F E D C B A)
        (let ((a!1 (ite (and (not (<= A 0)) (>= (HeapSize H) A))
                (select (HeapContents H) A)
                defObj)))
  (not ((_ is O_node) a!1)))
      )
      CHC_COMP_FALSE
    )
  )
)
(assert
  (forall ( (A Int) (B Int) (C Int) (D Int) (E Int) (F Int) (G Int) (H Heap) ) 
    (=>
      (and
        (inv_main47 H G F E D C B A)
        (let ((a!1 (ite (and (not (<= A 0)) (>= (HeapSize H) A))
                (select (HeapContents H) A)
                defObj)))
  (not ((_ is O_node) a!1)))
      )
      CHC_COMP_FALSE
    )
  )
)
(assert
  (forall ( (A Int) (B Int) (C Int) (D Int) (E Int) (F Int) (G Int) (H Heap) ) 
    (=>
      (and
        (inv_main52 H G F E D C B A)
        (let ((a!1 (ite (and (not (<= A 0)) (>= (HeapSize H) A))
                (select (HeapContents H) A)
                defObj)))
  (not ((_ is O_node) a!1)))
      )
      CHC_COMP_FALSE
    )
  )
)
(assert
  (forall ( (A Int) (B Int) (C Int) (D Int) (E Int) (F Int) (G Int) (H Heap) ) 
    (=>
      (and
        (inv_main54 H G F E D C B A)
        (let ((a!1 (ite (and (not (<= A 0)) (>= (HeapSize H) A))
                (select (HeapContents H) A)
                defObj)))
  (not ((_ is O_node) a!1)))
      )
      CHC_COMP_FALSE
    )
  )
)
(assert
  (forall ( (A Int) (B Int) (C Int) (D Int) (E Int) (F Int) (G Int) (H Heap) ) 
    (=>
      (and
        (inv_main53 H G F E D C B A)
        (let ((a!1 (ite (and (not (<= A 0)) (>= (HeapSize H) A))
                (select (HeapContents H) A)
                defObj)))
  (not ((_ is O_node) a!1)))
      )
      CHC_COMP_FALSE
    )
  )
)
(assert
  (forall ( (A Int) (B Int) (C Int) (D Int) (E Int) (F Int) (G Int) (H Heap) ) 
    (=>
      (and
        (inv_main56 H G F E D C B A)
        (let ((a!1 (ite (and (not (<= B 0)) (>= (HeapSize H) B))
                (select (HeapContents H) B)
                defObj)))
  (not ((_ is O_node) a!1)))
      )
      CHC_COMP_FALSE
    )
  )
)
(assert
  (forall ( (A Int) (B Int) (C Int) (D Int) (E Int) (F Heap) ) 
    (=>
      (and
        (inv_main60 F E D C B A)
        (let ((a!1 (ite (and (not (<= B 0)) (>= (HeapSize F) B))
                (select (HeapContents F) B)
                defObj)))
  (not ((_ is O_node) a!1)))
      )
      CHC_COMP_FALSE
    )
  )
)
(assert
  (forall ( (A Int) (B Int) (C Int) (D Int) (E Int) (F Heap) ) 
    (=>
      (and
        (inv_main61 F E D C B A)
        (let ((a!1 (ite (and (not (<= B 0)) (>= (HeapSize F) B))
                (select (HeapContents F) B)
                defObj)))
  (not ((_ is O_node) a!1)))
      )
      CHC_COMP_FALSE
    )
  )
)
(assert
  (forall ( (A Int) (B Int) (C Int) (D Int) (E Int) (F Int) (G Heap) ) 
    (=>
      (and
        (inv_main73 G F E D C B A)
        (let ((a!1 (ite (and (not (<= A 0)) (>= (HeapSize G) A))
                (select (HeapContents G) A)
                defObj)))
  (not ((_ is O_node) a!1)))
      )
      CHC_COMP_FALSE
    )
  )
)
(assert
  (forall ( (A Int) (B Int) (C Int) (D Int) (E Int) (F Heap) ) 
    (=>
      (and
        (inv_main76 F E D C B A)
        true
      )
      CHC_COMP_FALSE
    )
  )
)
(assert
  (forall ( (CHC_COMP_UNUSED Bool) ) 
    (=>
      (and
        CHC_COMP_FALSE
      )
      false
    )
  )
)

(check-sat)
(exit)
